8 30 
51 13 
32 88 
19 64 
96 78 
12 26 
55 41 
77 94 
34 50 
62 98 
11 24 
10 3 
55 13 
37 35 
99 90 
22 60 
20 73 
73 4 
62 44 
21 10 
74 33 
36 30 
26 65 
76 61 
15 38 
11 79 
15 21 
34 22 
87 23 
57 38 
13 79 
98 85 
5 23 
90 19 
20 11 
29 94 
96 65 
76 74 
30 52 
87 98 
91 98 
77 58 
72 63 
80 59 
86 37 
97 0 
68 48 
85 25 
71 27 
44 91 
